param : B: V W:=
1  100  150
2  80   120
3  60    80
;
param : M: v w p:=
1   24  21  32
2   15  20  86
3   17  13  14
4   17  23  61
5   10  16  80
6   16  27  28
7   29  26  85
8   19  23  50
9	11	28	19
10	13	29	76
11	19	19	48
12	10	23	77
13	12	19	61
14	21	24	59
15	17	21	45
16	12	20	56
17	17	21	45
18	18	19	48
19	17	23	64
20	14	28	55
21	18	19	54
22	14	20	63
23	10	23	59
24	12	24	61
25	14	21	53
26	18	19	61
27	20	25	49
28	16	23	68
29	15	25	52
30	20	21	54
;